p cnf 48 140
a 25 33 0
e 1 2 3 4 5 6 7 8 9 10 11 12 13 14 15 16 17 18 19 20 21 22 23 24 26 27 28 29 30 31 32 34 35 36 37 38 39 40 41 42 43 44 45 46 47 48 0
-3 -1 0
-3 -2 0
1 2 3 0
6 -4 0
6 5 0
4 -5 -6 0
-7 3 0
-7 6 0
-3 -6 7 0
9 -10 -11 0
-9 10 -11 0
9 10 11 0
-9 -10 11 0
8 11 -12 0
-8 -11 -12 0
8 -11 12 0
-8 11 12 0
-12 -5 -13 0
12 5 -13 0
-12 5 13 0
12 -5 13 0
14 -4 0
14 -5 0
4 5 -14 0
16 15 0
16 9 0
-15 -9 -16 0
-17 -16 0
-17 8 0
16 -8 17 0
18 17 0
18 -8 0
-17 8 -18 0
20 -4 0
20 -4 0
4 -20 0
-21 -6 0
-21 -20 0
6 20 21 0
-22 -19 0
-22 -21 0
19 21 22 0
8 23 -24 0
-8 -23 -24 0
8 -23 24 0
-8 23 24 0
-25 -22 0
-25 24 0
22 -24 25 0
26 -18 0
26 -25 0
18 25 -26 0
-27 14 0
-27 -26 0
-14 26 27 0
13 27 -28 0
-13 -27 -28 0
13 -27 28 0
-13 27 28 0
-29 7 0
-29 -28 0
-7 28 29 0
-30 5 0
-30 -11 0
-5 11 30 0
-31 5 0
-31 11 0
-5 -11 31 0
32 -9 0
32 31 0
9 -31 -32 0
-33 -2 0
-33 32 0
2 -32 33 0
34 -33 0
34 -15 0
33 15 -34 0
35 -30 0
35 -34 0
30 34 -35 0
-2 11 -36 0
2 -11 -36 0
-2 -11 36 0
2 11 36 0
36 8 -37 0
-36 -8 -37 0
36 -8 37 0
-36 8 37 0
38 9 0
38 -37 0
-9 37 -38 0
-5 -2 -39 0
5 2 -39 0
-5 2 39 0
5 -2 39 0
-40 -12 0
-40 -39 0
12 39 40 0
-38 -40 -41 0
38 40 -41 0
-38 40 41 0
38 -40 41 0
-42 -35 0
-42 41 0
35 -41 42 0
29 -42 -43 0
-29 42 -43 0
29 42 43 0
-29 -42 43 0
-17 -33 -44 0
17 33 -44 0
-17 33 44 0
17 -33 44 0
45 -44 0
45 39 0
44 -39 -45 0
-46 -4 0
-46 -4 0
4 46 0
45 -46 -47 0
-45 46 -47 0
45 46 47 0
-45 -46 47 0
48 -43 0
48 47 0
43 -47 -48 0
-44 -42 43 0
40 -20 38 37 32 -26 41 0
34 15 -32 -38 -3 36 2 0
9 -33 8 13 12 -10 0
-39 -37 45 36 -16 -24 -2 0
23 -33 -35 -10 8 -24 -27 0
42 13 9 17 2 -32 29 45 0
18 -13 0
-25 4 -29 -18 0
28 10 39 0
40 -47 -32 0
-14 -44 -23 -36 38 0
-41 -20 -36 34 6 0
48 0
